nb_recettes = 2;
nb_ingredients = 7;
nb_moments = 3;
nb_nationalites = 10;

% Noms des plat: ["muffins", "omelette"];

% noms_ingredients = ["farine (g)", "sucre (g)", "oeufs (nb)", "lait (ml)", "sel (g)", "beurre (g)", "crème (ml)"];

ingredients = [|56, 53, 1, 45, 1, 29, 0,
|0,  0,  2, 0,  2, 0,  0|];

qtes_disponibles = [500, 500, 4, 2000, 500, 500, 400];

peremptions = [2, 600, 10, 5, 1000, 60, 8];

% Moment de recette (déjeuner, dîner, souper)

moments = [|1, 1, 0,
|1, 0, 1|];

% Nationalite de plat: ("american", "mexican", "french", "canadian", "japanese", "chinese", "korean", "portuguese", "spanish", "polish");

nationalites = [|1, 0, 0, 0, 0, 0, 0, 0, 0, 0,
|1, 0, 0, 0, 0, 0, 0, 0, 0, 0|];

preferences_nationalites = [0, 0, 0, 0, 0, 0, 0, 0, 0, 0];
